experiments/extractfix/jasper/CVE-2016-9387/components/dec->yend.smt2
(declare-const rvalue_dec->yend (_ BitVec 32))
(declare-const lvalue_dec->yend (_ BitVec 32))
(declare-const rreturn (_ BitVec 32))
(declare-const lreturn (_ BitVec 32))
(assert (and (= rreturn rvalue_dec->yend) (= lreturn lvalue_dec->yend)))